c Sudoku solution
p cnf 729 0
155 0
169 0
174 0
212 0
251 0
287 0
336 0
343 0
358 0
399 0
432 0
453 0
568 0
616 0
635 0
682 0
713 0
744 0
246 0
264 0
759 0
815 0
852 0
542 0
147 0
362 0
192 0
186 0
873 0
963 0
293 0
278 0
225 0
239 0
583 0
623 0
698 0
654 0
133 0
888 0
841 0
948 0
765 0
781 0
829 0
738 0
649 0
445 0
385 0
371 0
677 0
661 0
994 0
989 0
975 0
772 0
922 0
726 0
797 0
896 0
834 0
867 0
956 0
557 0
466 0
479 0
484 0
491 0
519 0
524 0
531 0
314 0
327 0
121 0
118 0
911 0
937 0
417 0
428 0
576 0
595 0
